p cnf 892 69
-8 9 -1 0
-8 10 -1 0
-8 11 -1 0
-8 16 -1 0
-8 -18 -1 0
-8 -19 -1 0
-8 -20 -1 0
-8 -21 -1 0
-8 -22 -1 0
-8 24 -1 0
-27 8 -1 0
-47 48 -41 0
-47 49 -41 0
-47 50 -41 0
-47 51 -41 0
-47 -53 -41 0
-47 -54 -41 0
-47 -55 -41 0
-58 47 -41 0
-79 80 -73 0
-79 81 -73 0
-79 82 -73 0
-79 83 -73 0
-79 -85 -73 0
-79 -86 -73 0
-79 -87 -73 0
-90 79 -73 0
-110 111 -104 0
-110 112 -104 0
-110 113 -104 0
-110 114 -104 0
-110 -116 -104 0
-110 -117 -104 0
-110 -118 -104 0
-121 110 -104 0
-140 141 -134 0
-140 142 -134 0
-140 143 -134 0
-140 144 -134 0
-140 -146 -134 0
-140 -147 -134 0
-140 -148 -134 0
-151 140 -134 0
-168 -167 -164 -163 0
-169 168 -163 0
-169 170 -163 0
-169 171 -163 0
-169 172 -163 0
-169 173 -163 0
-169 -175 -163 0
-169 -176 -163 0
-169 -177 -163 0
-169 179 -163 0
-180 169 -163 0
13 -152 0
14 -152 0
15 -152 0
-152 -884 0
-152 -885 0
-152 886 0
25 -152 0
27 -123 0
-123 180 0
-123 151 0
121 -123 0
90 -123 0
58 -123 0
-123 164 0
-179 167 -123 884 885 -886 -172 -144 -170 -171 -173 175 176 177 -114 -141 -142 -143 146 147 148 -83 -111 -112 -113 116 117 118 -51 -80 -81 -82 85 86 87 -10 -14 -16 19 21 22 -24 -25 -48 -49 -50 53 54 55 -9 -11 -13 -15 18 20 0
